\ Model Routes
\ LP format - for model browsing. Use MPS format to capture full model detail.
Maximize
  - 191.7153353028244 R{0,0} + 623.2046552982704 R{0,1}
   + 623.2046552982704 R{0,2} - 249.2301939667805 R{0,3}
   + 222.8649545650627 R{0,4} + 892.5014194710873 R{0,5}
   + 568.2280287393723 R{0,6} + 730.2960326730414 R{0,7}
   + 1464.706298561374 R{0,8} + 577.8421868511019 R{0,9}
   + 1057.351390635739 R{0,10} + 797.6530863678922 R{0,11}
   + 1118.000421849683 R{0,12} + 882.4401090533336 R{0,13}
   + 1121.66843653162 R{0,14} + 960.1156983794729 R{0,15}
   + 852.3872967587818 R{0,16} + 1076.883345998826 R{0,17}
   + 1922.278329073422 R{0,18} + 1765.615359409347 R{0,19}
   + 1804.560173728331 R{0,20} + 128.545475120328 R{0,21}
   + 1803.193937947732 R{0,22} + 128.545475120328 R{0,23}
   + 434.1633846344188 R{0,24} + 784.3205126583084 R{0,25}
   + 2257.988645116224 R{0,26} + 128.545475120328 R{0,27}
   + 2679.186220971709 R{0,28} + 2322.611289255499 R{0,29}
   + 1287.194182181501 R{0,30} - 256.140831891889 R{1,0}
   + 41.44651618699046 R{1,1} + 468.947430945026 R{1,2}
   + 544.0669767572493 R{1,3} + 697.4059958048057 R{1,4}
   + 1395.262593529601 R{1,5} + 705.4352080196788 R{1,6}
   + 705.4352080196788 R{1,7} + 1651.705548576653 R{1,8}
   + 2156.789286813506 R{1,9} + 1260.434838950035 R{1,10}
   + 571.9186798968457 R{1,11} + 848.3239924092913 R{1,12}
   + 401.3598587892856 R{1,13} + 513.402398901673 R{1,14}
   + 518.9100476430036 R{1,15} + 962.8333407442383 R{1,16}
   + 1373.002008083262 R{1,17} + 487.1305810095264 R{1,18}
   + 998.8699944378202 R{1,19} + 452.4461701123878 R{1,20}
   + 444.2586730013281 R{1,21} + 1640.179295884746 R{1,22}
   + 925.7388740894976 R{1,23} + 1284.503268148345 R{1,24}
   + 602.2220449306826 R{1,25} + 452.932431084178 R{1,26}
   + 1421.985696885768 R{1,27} + 2288.034210921884 R{1,28}
   + 118.5174213244267 R{1,29} + 426.4067156561682 R{1,30}
   + 873.6597842033982 R{1,31} + 1083.656079988567 R{1,32}
   + 286.9626952784929 R{1,33} + 2309.95209831482 R{1,34}
   + 1198.881248318718 R{2,0} + 1198.881248318718 R{2,1}
   - 278.4443928850388 R{2,2} - 59.13410337035452 R{2,3}
   + 602.7748664658451 R{2,4} + 1100.505917706273 R{2,5}
   + 947.5724883564153 R{2,6} + 1561.92457697342 R{2,7}
   + 686.5594240820667 R{2,8} + 1695.074239709431 R{2,9}
   + 1523.519968574598 R{2,10} + 819.3752605616277 R{2,11}
   + 1550.20067947595 R{2,12} + 1351.095603552365 R{2,13}
   + 956.4092846253325 R{2,14} + 354.0697071209938 R{2,15}
   + 734.802702185822 R{2,16} + 396.2198150199624 R{2,17}
   + 395.796393489625 R{2,18} + 1878.634768716929 R{2,19}
   + 1021.534971337508 R{2,20} + 802.8257719424669 R{2,21}
   + 1127.126554447374 R{2,22} + 524.5743265328255 R{2,23}
   + 1021.534971337508 R{2,24} + 1180.360993268499 R{2,25}
   + 260.7319520024097 R{2,26} + 830.09361557288 R{2,27}
   + 462.2985486765674 R{2,28} + 894.3013965723876 R{2,29}
   + 1094.353739980157 R{2,30} + 717.3102349252349 R{2,31}
   + 428.3008038447159 R{2,32} + 596.9606791534845 R{2,33}
   + 188.8677732867749 R{2,34} + 144.4600408296817 R{2,35}
   + 1393.983178776477 R{2,36} + 427.20535773504 R{2,37}
   + 709.7316892843273 R{2,38} + 516.4668591352058 R{2,39}
   + 348.5982428458095 R{2,40} + 389.0188856993195 R{2,41}
   - 260.2482995389823 R{3,0} + 637.8926476026959 R{3,1}
   + 1005.833610869225 R{3,2} + 1366.836328139346 R{3,3}
   + 1308.1755961407 R{3,4} + 781.1766593979985 R{3,5}
   + 1406.409588093054 R{3,6} + 1256.64249044657 R{3,7}
   + 748.0679084780494 R{3,8} + 1212.439507277819 R{3,9}
   + 1140.552296881749 R{3,10} + 691.9238565078728 R{3,11}
   + 1371.484245027532 R{3,12} + 1326.192917371066 R{3,13}
   + 1281.493259584573 R{3,14} + 651.8026721981046 R{3,15}
   + 1133.551972555706 R{3,16} + 1072.27978028067 R{3,17}
   + 1049.683288436978 R{3,18} + 1065.119794716431 R{3,19}
   + 677.2765053386654 R{3,20} + 1042.417508327399 R{3,21}
   + 948.1388670500246 R{3,22} + 1063.153278145411 R{3,23}
   + 457.2876557935185 R{3,24} + 1078.213942060273 R{3,25}
   + 367.2528866008945 R{3,26} + 2120.639692565152 R{3,27}
   + 2257.545021598026 R{3,28} + 175.9617986629976 R{3,29}
   + 58.58062385219432 R{3,30} + 1844.643818063551 R{3,31}
   + 1728.395134612279 R{3,32} + 859.8812685690484 R{3,33}
   + 1417.11317457719 R{3,34} + 979.5282271629617 R{3,35}
   + 1782.310333311226 R{3,36} + 1450.046436792879 R{3,37}
   + 2483.665501536281 R{3,38} + 103.030763305738 R{3,39}
   + 1082.976616512917 R{3,40} - 242.5208875955131 R{4,0}
   + 828.5964431846835 R{4,1} + 1338.413574514046 R{4,2}
   + 1376.976663885629 R{4,3} + 1127.543677281656 R{4,4}
   + 636.1946624570069 R{4,5} + 1127.543677281656 R{4,6}
   + 676.8841167150301 R{4,7} + 918.6649068760003 R{4,8}
   + 971.7477901291411 R{4,9} + 863.1836458870646 R{4,10}
   + 1390.288188283838 R{4,11} + 1753.930772778571 R{4,12}
   + 809.3859410864113 R{4,13} + 1588.003617912918 R{4,14}
   + 1599.39319378679 R{4,15} + 1030.111096391463 R{4,16}
   + 1232.917535331143 R{4,17} + 503.4852716618249 R{4,18}
   + 734.1226571146058 R{4,19} + 432.5839565297503 R{4,20}
   + 1012.253477300635 R{4,21} + 539.1637539990897 R{4,22}
   + 982.4755491132437 R{4,23} + 897.7195088979906 R{4,24}
   + 865.3265696428152 R{4,25} + 950.8092841225093 R{4,26}
   + 795.7248387157402 R{4,27} + 763.4834377526618 R{4,28}
   + 1818.727570786486 R{4,29} + 594.4511059062655 R{4,30}
   + 671.7945466020893 R{4,31} + 1386.901587038847 R{4,32}
   + 1058.292589368457 R{4,33} + 477.1844360805011 R{4,34}
   + 1218.2594846151 R{4,35} - 231.9775664337766 R{5,0}
   + 62.29165442386352 R{5,1} + 624.8585638506388 R{5,2}
   + 2007.891165049067 R{5,3} + 508.4522774851932 R{5,4}
   + 1532.340622813473 R{5,5} + 946.3913052932717 R{5,6}
   + 367.9465566968998 R{5,7} + 1488.154974810136 R{5,8}
   + 965.8010264191075 R{5,9} + 1742.112433605021 R{5,10}
   + 932.9074534480162 R{5,11} + 1009.834599182553 R{5,12}
   + 1126.257332464189 R{5,13} + 567.5090598485262 R{5,14}
   + 1027.350400578574 R{5,15} + 347.298902987942 R{5,16}
   + 1566.961994545972 R{5,17} + 347.298902987942 R{5,18}
   + 1566.81972504652 R{5,19} + 690.8956711782724 R{5,20}
   + 1244.978037993412 R{5,21} + 658.5823271661479 R{5,22}
   + 904.9683166821287 R{5,23} + 150.9147064703113 R{5,24}
   + 889.9883915509679 R{5,25} + 823.1874204189843 R{5,26}
   + 492.6636569625257 R{5,27} + 1846.579050404194 R{5,28}
   - 231.1436095783099 R{6,0} + 1381.891878324568 R{6,1}
   + 2138.911397941406 R{6,2} + 2560.066428814385 R{6,3}
   + 1506.127581131167 R{6,4} + 1652.305717802935 R{6,5}
   + 968.4861971587191 R{6,6} + 1680.150058466588 R{6,7}
   + 1131.080500202281 R{6,8} + 1652.305717802935 R{6,9}
   + 1131.080500202281 R{6,10} + 1308.542948481661 R{6,11}
   + 618.1874500983498 R{6,12} + 911.0732828771215 R{6,13}
   + 1618.892646296878 R{6,14} + 1044.488350335288 R{6,15}
   + 1403.547526567786 R{6,16} + 733.6707310135164 R{6,17}
   + 530.3152294058673 R{6,18} + 715.1569875467286 R{6,19}
   + 1259.502429649201 R{6,20} + 263.9051861282762 R{6,21}
   + 760.8695484573408 R{6,22} + 1353.570992908883 R{6,23}
   + 601.5398937204629 R{6,24} + 988.1573090156057 R{6,25}
   + 1628.046421023545 R{6,26} + 626.3431152875847 R{6,27}
   + 632.2923822506519 R{6,28} + 416.9526649322308 R{6,29}
   + 1570.443181967487 R{6,30} + 555.2319240839288 R{6,31}
   + 1496.166782797518 R{6,32} + 526.519363193697 R{6,33}
   + 1167.835607445194 R{6,34} + 967.9198250737313 R{6,35}
   + 819.6126623970831 R{6,36} + 731.0083060542478 R{6,37}
   + 1271.399319776776 R{6,38} + 287.4925160029934 R{6,39}
   + 71.44826460298447 R{6,40} + 711.7475596738501 R{6,41}
   + 432.2253093675237 R{6,42}
Subject To
 R00: R{0,0} <= 1
 R01: R{0,1} <= 1
 R02: R{0,2} <= 1
 R03: R{0,3} <= 1
 R04: R{0,4} <= 1
 R05: R{0,5} <= 1
 R06: R{0,6} <= 1
 R07: R{0,7} <= 1
 R08: R{0,8} <= 1
 R09: R{0,9} <= 1
 R010: R{0,10} <= 1
 R011: R{0,11} <= 1
 R012: R{0,12} <= 1
 R013: R{0,13} <= 1
 R014: R{0,14} <= 1
 R015: R{0,15} <= 1
 R016: R{0,16} <= 1
 R017: R{0,17} <= 1
 R018: R{0,18} <= 1
 R019: R{0,19} <= 1
 R020: R{0,20} <= 1
 R021: R{0,21} <= 1
 R022: R{0,22} <= 1
 R023: R{0,23} <= 1
 R024: R{0,24} <= 1
 R025: R{0,25} <= 1
 R026: R{0,26} <= 1
 R027: R{0,27} <= 1
 R028: R{0,28} <= 1
 R029: R{0,29} <= 1
 R030: R{0,30} <= 1
 R031: R{1,0} <= 1
 R032: R{1,1} <= 1
 R033: R{1,2} <= 1
 R034: R{1,3} <= 1
 R035: R{1,4} <= 1
 R036: R{1,5} <= 1
 R037: R{1,6} <= 1
 R038: R{1,7} <= 1
 R039: R{1,8} <= 1
 R040: R{1,9} <= 1
 R041: R{1,10} <= 1
 R042: R{1,11} <= 1
 R043: R{1,12} <= 1
 R044: R{1,13} <= 1
 R045: R{1,14} <= 1
 R046: R{1,15} <= 1
 R047: R{1,16} <= 1
 R048: R{1,17} <= 1
 R049: R{1,18} <= 1
 R050: R{1,19} <= 1
 R051: R{1,20} <= 1
 R052: R{1,21} <= 1
 R053: R{1,22} <= 1
 R054: R{1,23} <= 1
 R055: R{1,24} <= 1
 R056: R{1,25} <= 1
 R057: R{1,26} <= 1
 R058: R{1,27} <= 1
 R059: R{1,28} <= 1
 R060: R{1,29} <= 1
 R061: R{1,30} <= 1
 R062: R{1,31} <= 1
 R063: R{1,32} <= 1
 R064: R{1,33} <= 1
 R065: R{1,34} <= 1
 R066: R{2,0} <= 1
 R067: R{2,1} <= 1
 R068: R{2,2} <= 1
 R069: R{2,3} <= 1
 R070: R{2,4} <= 1
 R071: R{2,5} <= 1
 R072: R{2,6} <= 1
 R073: R{2,7} <= 1
 R074: R{2,8} <= 1
 R075: R{2,9} <= 1
 R076: R{2,10} <= 1
 R077: R{2,11} <= 1
 R078: R{2,12} <= 1
 R079: R{2,13} <= 1
 R080: R{2,14} <= 1
 R081: R{2,15} <= 1
 R082: R{2,16} <= 1
 R083: R{2,17} <= 1
 R084: R{2,18} <= 1
 R085: R{2,19} <= 1
 R086: R{2,20} <= 1
 R087: R{2,21} <= 1
 R088: R{2,22} <= 1
 R089: R{2,23} <= 1
 R090: R{2,24} <= 1
 R091: R{2,25} <= 1
 R092: R{2,26} <= 1
 R093: R{2,27} <= 1
 R094: R{2,28} <= 1
 R095: R{2,29} <= 1
 R096: R{2,30} <= 1
 R097: R{2,31} <= 1
 R098: R{2,32} <= 1
 R099: R{2,33} <= 1
 R0100: R{2,34} <= 1
 R0101: R{2,35} <= 1
 R0102: R{2,36} <= 1
 R0103: R{2,37} <= 1
 R0104: R{2,38} <= 1
 R0105: R{2,39} <= 1
 R0106: R{2,40} <= 1
 R0107: R{2,41} <= 1
 R0108: R{3,0} <= 1
 R0109: R{3,1} <= 1
 R0110: R{3,2} <= 1
 R0111: R{3,3} <= 1
 R0112: R{3,4} <= 1
 R0113: R{3,5} <= 1
 R0114: R{3,6} <= 1
 R0115: R{3,7} <= 1
 R0116: R{3,8} <= 1
 R0117: R{3,9} <= 1
 R0118: R{3,10} <= 1
 R0119: R{3,11} <= 1
 R0120: R{3,12} <= 1
 R0121: R{3,13} <= 1
 R0122: R{3,14} <= 1
 R0123: R{3,15} <= 1
 R0124: R{3,16} <= 1
 R0125: R{3,17} <= 1
 R0126: R{3,18} <= 1
 R0127: R{3,19} <= 1
 R0128: R{3,20} <= 1
 R0129: R{3,21} <= 1
 R0130: R{3,22} <= 1
 R0131: R{3,23} <= 1
 R0132: R{3,24} <= 1
 R0133: R{3,25} <= 1
 R0134: R{3,26} <= 1
 R0135: R{3,27} <= 1
 R0136: R{3,28} <= 1
 R0137: R{3,29} <= 1
 R0138: R{3,30} <= 1
 R0139: R{3,31} <= 1
 R0140: R{3,32} <= 1
 R0141: R{3,33} <= 1
 R0142: R{3,34} <= 1
 R0143: R{3,35} <= 1
 R0144: R{3,36} <= 1
 R0145: R{3,37} <= 1
 R0146: R{3,38} <= 1
 R0147: R{3,39} <= 1
 R0148: R{3,40} <= 1
 R0149: R{4,0} <= 1
 R0150: R{4,1} <= 1
 R0151: R{4,2} <= 1
 R0152: R{4,3} <= 1
 R0153: R{4,4} <= 1
 R0154: R{4,5} <= 1
 R0155: R{4,6} <= 1
 R0156: R{4,7} <= 1
 R0157: R{4,8} <= 1
 R0158: R{4,9} <= 1
 R0159: R{4,10} <= 1
 R0160: R{4,11} <= 1
 R0161: R{4,12} <= 1
 R0162: R{4,13} <= 1
 R0163: R{4,14} <= 1
 R0164: R{4,15} <= 1
 R0165: R{4,16} <= 1
 R0166: R{4,17} <= 1
 R0167: R{4,18} <= 1
 R0168: R{4,19} <= 1
 R0169: R{4,20} <= 1
 R0170: R{4,21} <= 1
 R0171: R{4,22} <= 1
 R0172: R{4,23} <= 1
 R0173: R{4,24} <= 1
 R0174: R{4,25} <= 1
 R0175: R{4,26} <= 1
 R0176: R{4,27} <= 1
 R0177: R{4,28} <= 1
 R0178: R{4,29} <= 1
 R0179: R{4,30} <= 1
 R0180: R{4,31} <= 1
 R0181: R{4,32} <= 1
 R0182: R{4,33} <= 1
 R0183: R{4,34} <= 1
 R0184: R{4,35} <= 1
 R0185: R{5,0} <= 1
 R0186: R{5,1} <= 1
 R0187: R{5,2} <= 1
 R0188: R{5,3} <= 1
 R0189: R{5,4} <= 1
 R0190: R{5,5} <= 1
 R0191: R{5,6} <= 1
 R0192: R{5,7} <= 1
 R0193: R{5,8} <= 1
 R0194: R{5,9} <= 1
 R0195: R{5,10} <= 1
 R0196: R{5,11} <= 1
 R0197: R{5,12} <= 1
 R0198: R{5,13} <= 1
 R0199: R{5,14} <= 1
 R0200: R{5,15} <= 1
 R0201: R{5,16} <= 1
 R0202: R{5,17} <= 1
 R0203: R{5,18} <= 1
 R0204: R{5,19} <= 1
 R0205: R{5,20} <= 1
 R0206: R{5,21} <= 1
 R0207: R{5,22} <= 1
 R0208: R{5,23} <= 1
 R0209: R{5,24} <= 1
 R0210: R{5,25} <= 1
 R0211: R{5,26} <= 1
 R0212: R{5,27} <= 1
 R0213: R{5,28} <= 1
 R0214: R{6,0} <= 1
 R0215: R{6,1} <= 1
 R0216: R{6,2} <= 1
 R0217: R{6,3} <= 1
 R0218: R{6,4} <= 1
 R0219: R{6,5} <= 1
 R0220: R{6,6} <= 1
 R0221: R{6,7} <= 1
 R0222: R{6,8} <= 1
 R0223: R{6,9} <= 1
 R0224: R{6,10} <= 1
 R0225: R{6,11} <= 1
 R0226: R{6,12} <= 1
 R0227: R{6,13} <= 1
 R0228: R{6,14} <= 1
 R0229: R{6,15} <= 1
 R0230: R{6,16} <= 1
 R0231: R{6,17} <= 1
 R0232: R{6,18} <= 1
 R0233: R{6,19} <= 1
 R0234: R{6,20} <= 1
 R0235: R{6,21} <= 1
 R0236: R{6,22} <= 1
 R0237: R{6,23} <= 1
 R0238: R{6,24} <= 1
 R0239: R{6,25} <= 1
 R0240: R{6,26} <= 1
 R0241: R{6,27} <= 1
 R0242: R{6,28} <= 1
 R0243: R{6,29} <= 1
 R0244: R{6,30} <= 1
 R0245: R{6,31} <= 1
 R0246: R{6,32} <= 1
 R0247: R{6,33} <= 1
 R0248: R{6,34} <= 1
 R0249: R{6,35} <= 1
 R0250: R{6,36} <= 1
 R0251: R{6,37} <= 1
 R0252: R{6,38} <= 1
 R0253: R{6,39} <= 1
 R0254: R{6,40} <= 1
 R0255: R{6,41} <= 1
 R0256: R{6,42} <= 1
 R1_0: R{0,0} + R{0,1} + R{0,2} + R{0,3} + R{0,4} + R{0,5} + R{0,6}
   + R{0,7} + R{0,8} + R{0,9} + R{0,10} + R{0,11} + R{0,12} + R{0,13}
   + R{0,14} + R{0,15} + R{0,16} + R{0,17} + R{0,18} + R{0,19} + R{0,20}
   + R{0,21} + R{0,22} + R{0,23} + R{0,24} + R{0,25} + R{0,26} + R{0,27}
   + R{0,28} + R{0,29} + R{0,30} <= 1
 R1_1: R{1,0} + R{1,1} + R{1,2} + R{1,3} + R{1,4} + R{1,5} + R{1,6}
   + R{1,7} + R{1,8} + R{1,9} + R{1,10} + R{1,11} + R{1,12} + R{1,13}
   + R{1,14} + R{1,15} + R{1,16} + R{1,17} + R{1,18} + R{1,19} + R{1,20}
   + R{1,21} + R{1,22} + R{1,23} + R{1,24} + R{1,25} + R{1,26} + R{1,27}
   + R{1,28} + R{1,29} + R{1,30} + R{1,31} + R{1,32} + R{1,33} + R{1,34}
   <= 1
 R1_2: R{2,0} + R{2,1} + R{2,2} + R{2,3} + R{2,4} + R{2,5} + R{2,6}
   + R{2,7} + R{2,8} + R{2,9} + R{2,10} + R{2,11} + R{2,12} + R{2,13}
   + R{2,14} + R{2,15} + R{2,16} + R{2,17} + R{2,18} + R{2,19} + R{2,20}
   + R{2,21} + R{2,22} + R{2,23} + R{2,24} + R{2,25} + R{2,26} + R{2,27}
   + R{2,28} + R{2,29} + R{2,30} + R{2,31} + R{2,32} + R{2,33} + R{2,34}
   + R{2,35} + R{2,36} + R{2,37} + R{2,38} + R{2,39} + R{2,40} + R{2,41}
   <= 1
 R1_3: R{3,0} + R{3,1} + R{3,2} + R{3,3} + R{3,4} + R{3,5} + R{3,6}
   + R{3,7} + R{3,8} + R{3,9} + R{3,10} + R{3,11} + R{3,12} + R{3,13}
   + R{3,14} + R{3,15} + R{3,16} + R{3,17} + R{3,18} + R{3,19} + R{3,20}
   + R{3,21} + R{3,22} + R{3,23} + R{3,24} + R{3,25} + R{3,26} + R{3,27}
   + R{3,28} + R{3,29} + R{3,30} + R{3,31} + R{3,32} + R{3,33} + R{3,34}
   + R{3,35} + R{3,36} + R{3,37} + R{3,38} + R{3,39} + R{3,40} <= 1
 R1_4: R{4,0} + R{4,1} + R{4,2} + R{4,3} + R{4,4} + R{4,5} + R{4,6}
   + R{4,7} + R{4,8} + R{4,9} + R{4,10} + R{4,11} + R{4,12} + R{4,13}
   + R{4,14} + R{4,15} + R{4,16} + R{4,17} + R{4,18} + R{4,19} + R{4,20}
   + R{4,21} + R{4,22} + R{4,23} + R{4,24} + R{4,25} + R{4,26} + R{4,27}
   + R{4,28} + R{4,29} + R{4,30} + R{4,31} + R{4,32} + R{4,33} + R{4,34}
   + R{4,35} <= 1
 R1_5: R{5,0} + R{5,1} + R{5,2} + R{5,3} + R{5,4} + R{5,5} + R{5,6}
   + R{5,7} + R{5,8} + R{5,9} + R{5,10} + R{5,11} + R{5,12} + R{5,13}
   + R{5,14} + R{5,15} + R{5,16} + R{5,17} + R{5,18} + R{5,19} + R{5,20}
   + R{5,21} + R{5,22} + R{5,23} + R{5,24} + R{5,25} + R{5,26} + R{5,27}
   + R{5,28} <= 1
 R1_6: R{6,0} + R{6,1} + R{6,2} + R{6,3} + R{6,4} + R{6,5} + R{6,6}
   + R{6,7} + R{6,8} + R{6,9} + R{6,10} + R{6,11} + R{6,12} + R{6,13}
   + R{6,14} + R{6,15} + R{6,16} + R{6,17} + R{6,18} + R{6,19} + R{6,20}
   + R{6,21} + R{6,22} + R{6,23} + R{6,24} + R{6,25} + R{6,26} + R{6,27}
   + R{6,28} + R{6,29} + R{6,30} + R{6,31} + R{6,32} + R{6,33} + R{6,34}
   + R{6,35} + R{6,36} + R{6,37} + R{6,38} + R{6,39} + R{6,40} + R{6,41}
   + R{6,42} <= 1
 R2_0: 7 R{0,26} + 7 R{0,28} + 7 R{0,29} + 7 R{2,19} + 7 R{3,13}
   + 7 R{3,16} + 7 R{3,28} + 7 R{3,31} + 7 R{3,33} + 7 R{4,16} + 7 R{4,29}
   + 7 R{6,19} <= 7
 R2_1: 10 R{0,26} + 10 R{0,28} + 10 R{1,5} + 10 R{1,8} + 10 R{1,9}
   + 10 R{1,11} + 10 R{1,13} + 10 R{1,15} + 10 R{1,20} + 10 R{1,21}
   + 10 R{1,23} + 10 R{1,25} + 10 R{1,27} + 10 R{1,28} + 10 R{1,34}
   + 10 R{2,9} + 10 R{2,10} + 10 R{2,12} + 10 R{2,14} + 10 R{2,16}
   + 10 R{2,19} + 10 R{2,21} + 10 R{2,23} + 10 R{2,26} + 10 R{2,31}
   + 10 R{2,34} + 10 R{2,36} + 10 R{2,38} + 10 R{2,41} + 10 R{3,1}
   + 10 R{3,2} + 10 R{3,3} + 10 R{3,5} + 10 R{3,7} + 10 R{3,9} + 10 R{3,11}
   + 10 R{3,13} + 10 R{3,15} + 10 R{3,16} + 10 R{3,17} + 10 R{3,18}
   + 10 R{3,20} + 10 R{3,22} + 10 R{3,26} + 10 R{3,28} + 10 R{3,32}
   + 10 R{3,35} + 10 R{3,38} + 10 R{3,40} + 10 R{5,6} + 10 R{5,7}
   + 10 R{5,14} + 10 R{5,16} + 10 R{5,18} + 10 R{5,21} + 10 R{5,25}
   + 10 R{5,26} + 10 R{6,41} <= 10
 R2_2: <= 0
 R2_3: <= 4
 R2_4: <= 0
 R2_5: 5 R{5,1} + 5 R{5,2} + 5 R{5,4} + 5 R{5,26} <= 5
 R2_6: 10 R{0,12} + 10 R{0,19} + 10 R{0,20} + 10 R{0,22} + 10 R{0,30}
   + 10 R{1,1} + 10 R{1,3} + 10 R{1,5} + 10 R{1,8} + 10 R{1,10}
   + 10 R{1,17} + 10 R{1,18} + 10 R{1,26} + 10 R{1,31} + 10 R{2,9}
   + 10 R{2,19} + 10 R{2,30} + 10 R{5,11} + 10 R{5,19} + 10 R{6,30} <= 10
 R2_7: 6 R{1,1} + 6 R{1,2} + 6 R{1,3} + 6 R{1,6} + 6 R{1,7} + 6 R{1,14}
   + 6 R{1,19} + 6 R{1,22} + 6 R{1,26} + 6 R{1,30} <= 6
 R2_8: <= 0
 R2_9: 12 R{0,15} + 12 R{1,28} + 12 R{1,34} + 12 R{3,27} + 12 R{3,36}
   + 12 R{4,1} + 12 R{4,2} + 12 R{4,3} + 12 R{4,4} + 12 R{4,6} + 12 R{4,7}
   + 12 R{4,8} + 12 R{4,9} + 12 R{4,10} + 12 R{4,11} + 12 R{4,12}
   + 12 R{4,13} + 12 R{4,14} + 12 R{4,15} + 12 R{4,16} + 12 R{4,17}
   + 12 R{4,18} + 12 R{4,19} + 12 R{4,20} + 12 R{4,22} + 12 R{4,23}
   + 12 R{4,24} + 12 R{4,26} + 12 R{4,27} + 12 R{4,28} + 12 R{4,29}
   + 12 R{4,30} + 12 R{4,32} + 12 R{4,33} + 12 R{6,23} + 12 R{6,25}
   + 12 R{6,28} + 12 R{6,38} <= 12
 R2_10: 8 R{0,7} + 8 R{0,18} + 8 R{0,26} + 8 R{2,17} + 8 R{2,32}
   + 8 R{2,37} + 8 R{3,32} + 8 R{5,3} + 8 R{6,1} + 8 R{6,2} + 8 R{6,4}
   + 8 R{6,7} + 8 R{6,14} + 8 R{6,16} + 8 R{6,28} + 8 R{6,34} + 8 R{6,35}
   + 8 R{6,37} + 8 R{6,38} + 8 R{6,41} <= 8
 R2_11: 15 R{0,14} + 15 R{0,16} + 15 R{0,17} + 15 R{2,19} + 15 R{3,28}
   + 15 R{3,31} + 15 R{3,38} + 15 R{6,16} + 15 R{6,18} + 15 R{6,21}
   + 15 R{6,23} + 15 R{6,25} + 15 R{6,28} + 15 R{6,29} + 15 R{6,38} <= 15
 R2_12: <= 0
 R2_13: <= 0
 R2_14: <= 0
 R2_15: 11 R{0,0} + 11 R{0,1} + 11 R{0,2} + 11 R{0,7} + 11 R{4,1}
   + 11 R{4,2} + 11 R{4,3} + 11 R{4,11} + 11 R{4,15} + 11 R{4,26}
   + 11 R{4,31} + 11 R{4,32} + 11 R{4,33} <= 11
 R2_16: 5 R{0,15} + 5 R{0,18} + 5 R{0,26} + 5 R{0,28} + 5 R{0,29}
   + 5 R{2,17} + 5 R{2,37} + 5 R{4,14} + 5 R{4,16} + 5 R{4,19} + 5 R{4,29}
   + 5 R{4,34} + 5 R{6,16} + 5 R{6,18} + 5 R{6,23} + 5 R{6,25} + 5 R{6,28}
   <= 5
 R2_17: 11 R{0,19} + 11 R{0,20} + 11 R{0,22} + 11 R{0,30} + 11 R{1,22}
   + 11 R{1,24} + 11 R{4,16} + 11 R{4,19} + 11 R{4,26} + 11 R{4,29}
   + 11 R{4,35} + 11 R{6,32} + 11 R{6,35} + 11 R{6,42} <= 11
 R2_18: 5 R{1,18} + 5 R{1,22} + 5 R{1,24} + 5 R{2,23} + 5 R{2,26}
   + 5 R{3,28} + 5 R{3,31} + 5 R{3,37} + 5 R{3,38} + 5 R{6,42} <= 5
 R2_19: 11 R{0,18} + 11 R{1,4} + 11 R{1,9} + 11 R{1,21} + 11 R{1,27}
   + 11 R{1,32} + 11 R{1,34} + 11 R{2,8} + 11 R{2,12} + 11 R{2,14}
   + 11 R{2,25} + 11 R{2,31} + 11 R{2,33} + 11 R{3,6} + 11 R{3,37}
   + 11 R{4,1} + 11 R{4,2} + 11 R{4,3} + 11 R{4,4} + 11 R{4,6} + 11 R{4,10}
   + 11 R{4,12} + 11 R{4,15} + 11 R{4,31} + 11 R{4,32} + 11 R{4,33}
   + 11 R{5,10} + 11 R{5,22} + 11 R{6,32} <= 11
 R2_20: 13 R{0,13} + 13 R{1,3} + 13 R{1,19} + 13 R{1,30} + 13 R{1,31}
   + 13 R{2,5} + 13 R{2,7} + 13 R{2,20} + 13 R{2,22} + 13 R{2,24}
   + 13 R{2,29} + 13 R{3,5} + 13 R{3,24} + 13 R{5,4} + 13 R{5,23}
   + 13 R{5,26} + 13 R{6,1} + 13 R{6,2} + 13 R{6,3} + 13 R{6,26} <= 13
 R2_21: <= 0
 R2_22: 10 R{0,10} + 10 R{0,15} + 10 R{2,21} + 10 R{3,18} + 10 R{3,19}
   + 10 R{3,27} + 10 R{3,28} + 10 R{3,31} + 10 R{3,34} + 10 R{4,15}
   + 10 R{4,31} + 10 R{4,33} + 10 R{6,17} + 10 R{6,24} + 10 R{6,27}
   + 10 R{6,31} <= 10
 R2_23: 14 R{0,1} + 14 R{0,2} + 14 R{0,6} + 14 R{0,9} + 14 R{2,0}
   + 14 R{2,1} + 14 R{2,6} + 14 R{2,28} + 14 R{2,32} + 14 R{2,39}
   + 14 R{3,27} + 14 R{3,34} + 14 R{3,36} + 14 R{4,4} + 14 R{4,6}
   + 14 R{4,8} + 14 R{4,9} + 14 R{4,21} + 14 R{4,22} + 14 R{4,24}
   + 14 R{4,25} + 14 R{4,27} + 14 R{4,34} + 14 R{4,35} + 14 R{6,3} <= 14
 R2_24: 10 R{0,26} + 10 R{1,20} + 10 R{1,22} + 10 R{1,28} + 10 R{2,29}
   + 10 R{3,1} + 10 R{3,2} + 10 R{3,3} + 10 R{3,4} + 10 R{3,6} + 10 R{3,7}
   + 10 R{3,9} + 10 R{3,10} + 10 R{3,15} + 10 R{3,17} + 10 R{3,18}
   + 10 R{3,20} + 10 R{3,22} + 10 R{3,24} + 10 R{3,25} + 10 R{3,27}
   + 10 R{3,28} + 10 R{3,34} + 10 R{3,36} + 10 R{3,37} + 10 R{3,38}
   + 10 R{3,40} + 10 R{4,14} + 10 R{5,5} <= 10
 R2_25: <= 13
 R2_26: 6 R{0,11} + 6 R{0,19} + 6 R{1,13} + 6 R{1,29} + 6 R{1,33}
   + 6 R{2,10} + 6 R{2,11} + 6 R{2,13} + 6 R{2,21} + 6 R{5,1} + 6 R{5,2}
   + 6 R{5,3} + 6 R{5,4} + 6 R{5,5} + 6 R{5,6} + 6 R{5,7} + 6 R{5,8}
   + 6 R{5,9} + 6 R{5,12} + 6 R{5,13} + 6 R{5,17} + 6 R{5,20} + 6 R{5,23}
   + 6 R{5,26} + 6 R{5,27} + 6 R{5,28} <= 6
 R2_27: 5 R{0,12} + 5 R{0,19} + 5 R{0,21} + 5 R{0,23} + 5 R{0,27}
   + 5 R{0,29} + 5 R{1,8} + 5 R{1,9} + 5 R{1,16} + 5 R{1,17} + 5 R{1,22}
   + 5 R{1,24} + 5 R{1,26} + 5 R{1,31} + 5 R{1,32} + 5 R{1,34} + 5 R{2,7}
   + 5 R{2,8} + 5 R{2,14} + 5 R{2,16} + 5 R{2,25} + 5 R{2,27} + 5 R{2,30}
   + 5 R{2,33} + 5 R{2,35} + 5 R{2,41} + 5 R{3,8} + 5 R{3,11} + 5 R{3,13}
   + 5 R{3,14} + 5 R{3,21} + 5 R{3,23} + 5 R{3,25} + 5 R{3,31} + 5 R{3,36}
   + 5 R{3,40} + 5 R{4,8} + 5 R{4,12} + 5 R{4,14} + 5 R{4,17} + 5 R{4,29}
   + 5 R{5,3} + 5 R{5,8} + 5 R{5,10} + 5 R{5,15} + 5 R{5,17} + 5 R{5,19}
   + 5 R{5,20} + 5 R{5,22} + 5 R{5,24} + 5 R{5,27} + 5 R{5,28} + 5 R{6,1}
   + 5 R{6,2} + 5 R{6,3} + 5 R{6,4} + 5 R{6,5} + 5 R{6,6} + 5 R{6,7}
   + 5 R{6,8} + 5 R{6,9} + 5 R{6,10} + 5 R{6,11} + 5 R{6,13} + 5 R{6,14}
   + 5 R{6,15} + 5 R{6,17} + 5 R{6,19} + 5 R{6,22} + 5 R{6,26} + 5 R{6,30}
   + 5 R{6,32} + 5 R{6,33} + 5 R{6,35} + 5 R{6,36} + 5 R{6,37} + 5 R{6,39}
   + 5 R{6,41} <= 5
 R2_28: <= 0
 R2_29: <= 0
 R2_30: <= 0
 R2_31: 6 R{1,24} + 6 R{1,25} + 6 R{1,30} + 6 R{2,31} <= 6
 R2_32: 7 R{0,4} + 7 R{0,5} + 7 R{0,11} + 7 R{0,19} + 7 R{0,20} + 7 R{0,22}
   + 7 R{0,30} + 7 R{1,28} + 7 R{1,33} + 7 R{3,37} + 7 R{5,3} + 7 R{5,5}
   + 7 R{5,8} + 7 R{5,10} + 7 R{5,11} + 7 R{5,13} + 7 R{5,16} + 7 R{5,17}
   + 7 R{5,18} + 7 R{5,19} + 7 R{5,20} + 7 R{5,21} + 7 R{5,23} + 7 R{5,25}
   + 7 R{5,28} <= 7
 R2_33: 12 R{1,5} + 12 R{1,6} + 12 R{1,7} + 12 R{1,8} + 12 R{1,9}
   + 12 R{1,11} + 12 R{1,12} + 12 R{1,15} + 12 R{1,17} + 12 R{1,23}
   + 12 R{1,27} + 12 R{1,28} + 12 R{2,9} + 12 R{2,10} + 12 R{2,12}
   + 12 R{2,13} + 12 R{2,16} + 12 R{2,29} + 12 R{2,36} + 12 R{2,40}
   + 12 R{3,10} + 12 R{3,13} + 12 R{3,16} + 12 R{3,23} + 12 R{3,33}
   + 12 R{3,39} + 12 R{5,9} + 12 R{5,12} + 12 R{5,14} + 12 R{5,19}
   + 12 R{5,21} + 12 R{6,20} + 12 R{6,22} + 12 R{6,33} + 12 R{6,34}
   + 12 R{6,37} <= 12
 R2_34: 5 R{0,8} + 5 R{0,17} + 5 R{0,18} + 5 R{0,19} + 5 R{0,20}
   + 5 R{0,22} + 5 R{0,26} + 5 R{0,28} + 5 R{0,29} + 5 R{0,30} + 5 R{1,22}
   + 5 R{1,28} + 5 R{1,34} + 5 R{2,9} + 5 R{2,10} + 5 R{2,12} + 5 R{2,23}
   + 5 R{2,32} + 5 R{2,40} + 5 R{3,6} + 5 R{3,27} + 5 R{3,37} + 5 R{4,27}
   + 5 R{5,28} + 5 R{6,31} + 5 R{6,38} + 5 R{6,40} <= 5
 R2_35: 13 R{5,12} + 13 R{5,14} + 13 R{5,21} + 13 R{6,34} <= 13
 R2_36: <= 0
 R2_37: 5 R{1,18} + 5 R{1,29} + 5 R{3,1} + 5 R{3,2} + 5 R{3,3} + 5 R{3,4}
   + 5 R{3,6} + 5 R{3,7} + 5 R{3,8} + 5 R{3,9} + 5 R{3,10} + 5 R{3,11}
   + 5 R{3,12} + 5 R{3,13} + 5 R{3,14} + 5 R{3,15} + 5 R{3,16} + 5 R{3,17}
   + 5 R{3,18} + 5 R{3,19} + 5 R{3,20} + 5 R{3,22} + 5 R{3,28} + 5 R{3,29}
   + 5 R{3,31} + 5 R{3,32} + 5 R{3,33} + 5 R{3,35} + 5 R{3,38} + 5 R{3,40}
   + 5 R{4,29} + 5 R{5,7} <= 5
 R2_38: <= 0
 R2_39: <= 0
 R2_40: 15 R{2,3} + 15 R{2,4} + 15 R{2,5} + 15 R{2,7} + 15 R{2,8}
   + 15 R{2,9} + 15 R{2,10} + 15 R{2,11} + 15 R{2,13} + 15 R{2,16}
   + 15 R{2,19} + 15 R{2,20} + 15 R{2,21} + 15 R{2,22} + 15 R{2,23}
   + 15 R{2,24} + 15 R{2,33} + 15 R{2,34} + 15 R{2,36} + 15 R{4,29}
   + 15 R{5,9} + 15 R{5,12} + 15 R{5,14} + 15 R{5,15} + 15 R{6,35}
   + 15 R{6,42} <= 15
 R2_41: 5 R{1,4} + 5 R{1,10} + 5 R{1,32} + 5 R{3,2} + 5 R{3,3} + 5 R{3,4}
   + 5 R{3,6} + 5 R{3,12} + 5 R{3,36} + 5 R{3,37} + 5 R{3,38} + 5 R{4,9}
   + 5 R{4,13} + 5 R{4,28} + 5 R{4,35} + 5 R{5,3} + 5 R{5,8} + 5 R{5,10}
   + 5 R{5,28} + 5 R{6,6} + 5 R{6,12} + 5 R{6,13} + 5 R{6,16} + 5 R{6,23}
   + 5 R{6,25} + 5 R{6,38} <= 5
 R2_42: 4 R{2,3} + 4 R{2,4} + 4 R{2,5} + 4 R{2,7} + 4 R{2,8} + 4 R{2,9}
   + 4 R{2,11} + 4 R{2,22} + 4 R{2,36} <= 4
 R2_43: <= 0
 R2_44: <= 0
 R2_45: <= 0
 R2_46: 9 R{0,7} + 9 R{0,8} + 9 R{0,9} + 9 R{0,10} + 9 R{0,15} + 9 R{1,28}
   + 9 R{4,5} + 9 R{4,7} + 9 R{4,12} + 9 R{4,13} + 9 R{4,21} + 9 R{4,28}
   + 9 R{5,10} <= 9
 R2_47: 7 R{5,1} + 7 R{5,2} + 7 R{5,3} + 7 R{5,6} + 7 R{5,8} + 7 R{5,10}
   + 7 R{5,11} <= 7
 R2_48: 4 R{0,18} + 4 R{0,25} + 4 R{0,26} + 4 R{0,28} + 4 R{0,29}
   + 4 R{1,28} + 4 R{4,1} + 4 R{4,2} + 4 R{4,3} + 4 R{4,4} + 4 R{4,6}
   + 4 R{4,7} + 4 R{4,8} + 4 R{4,9} + 4 R{4,10} + 4 R{4,11} + 4 R{4,13}
   + 4 R{4,15} + 4 R{4,17} + 4 R{4,18} + 4 R{4,20} + 4 R{4,21} + 4 R{4,22}
   + 4 R{4,23} + 4 R{4,24} + 4 R{4,25} + 4 R{4,26} + 4 R{4,27} + 4 R{4,28}
   + 4 R{4,29} + 4 R{4,30} + 4 R{4,31} + 4 R{4,32} <= 4
 R2_49: <= 0
 R2_50: <= 0
 R2_51: 11 R{1,11} + 11 R{1,32} + 11 R{2,14} + 11 R{2,19} + 11 R{2,40}
   + 11 R{3,39} + 11 R{4,1} + 11 R{4,29} + 11 R{5,14} <= 11
 R2_52: 10 R{4,5} + 10 R{4,10} + 10 R{4,12} + 10 R{4,14} + 10 R{4,16}
   + 10 R{4,18} + 10 R{4,19} + 10 R{4,20} + 10 R{4,30} + 10 R{4,33}
   + 10 R{4,35} <= 10
 R2_53: 13 R{2,19} + 13 R{4,1} + 13 R{4,2} + 13 R{4,3} + 13 R{4,4}
   + 13 R{4,6} + 13 R{4,7} + 13 R{4,8} + 13 R{4,9} + 13 R{4,10}
   + 13 R{4,11} + 13 R{4,15} + 13 R{4,17} + 13 R{4,18} + 13 R{4,23}
   + 13 R{4,25} + 13 R{4,26} + 13 R{4,27} + 13 R{4,29} + 13 R{4,32} <= 13
 R2_54: 9 R{0,28} + 9 R{1,15} + 9 R{2,19} + 9 R{3,1} + 9 R{3,2} + 9 R{3,3}
   + 9 R{3,4} + 9 R{3,5} + 9 R{3,6} + 9 R{3,7} + 9 R{3,9} + 9 R{3,10}
   + 9 R{3,11} + 9 R{3,12} + 9 R{3,13} + 9 R{3,15} + 9 R{3,16} + 9 R{3,17}
   + 9 R{3,18} + 9 R{3,20} + 9 R{3,22} + 9 R{3,27} + 9 R{3,29} + 9 R{3,32}
   + 9 R{3,33} + 9 R{3,34} + 9 R{3,35} + 9 R{3,37} + 9 R{6,24} + 9 R{6,38}
   <= 9
 R2_55: 8 R{2,19} + 8 R{3,32} + 8 R{6,1} + 8 R{6,2} + 8 R{6,3} + 8 R{6,4}
   + 8 R{6,5} + 8 R{6,7} + 8 R{6,8} + 8 R{6,9} + 8 R{6,10} + 8 R{6,11}
   + 8 R{6,14} + 8 R{6,15} + 8 R{6,16} + 8 R{6,17} + 8 R{6,19} + 8 R{6,23}
   + 8 R{6,24} + 8 R{6,27} + 8 R{6,36} <= 8
 R2_56: 6 R{0,26} + 6 R{0,28} + 6 R{1,9} + 6 R{1,22} + 6 R{1,24}
   + 6 R{1,28} + 6 R{2,0} + 6 R{2,1} + 6 R{2,6} + 6 R{2,13} + 6 R{3,27}
   + 6 R{4,11} + 6 R{4,12} + 6 R{4,14} + 6 R{4,16} + 6 R{4,24} + 6 R{4,26}
   + 6 R{4,30} + 6 R{6,5} + 6 R{6,8} + 6 R{6,9} + 6 R{6,10} + 6 R{6,14}
   + 6 R{6,15} + 6 R{6,16} + 6 R{6,20} + 6 R{6,22} + 6 R{6,23} + 6 R{6,24}
   + 6 R{6,30} + 6 R{6,31} + 6 R{6,32} + 6 R{6,34} + 6 R{6,36} + 6 R{6,38}
   <= 6
 R2_57: <= 0
 R2_58: 15 R{2,39} + 15 R{3,34} + 15 R{4,35} + 15 R{6,29} <= 15
 R2_59: 10 R{0,8} + 10 R{0,10} + 10 R{0,14} + 10 R{0,16} + 10 R{0,18}
   + 10 R{0,25} + 10 R{2,29} + 10 R{3,7} + 10 R{3,17} + 10 R{3,22}
   + 10 R{3,32} + 10 R{3,40} + 10 R{4,19} + 10 R{5,3} + 10 R{5,8}
   + 10 R{5,28} + 10 R{6,7} + 10 R{6,29} <= 10
 R2_60: <= 0
 R2_61: 9 R{0,8} + 9 R{0,10} + 9 R{0,14} + 9 R{0,17} + 9 R{2,28}
   + 9 R{3,28} + 9 R{3,31} + 9 R{3,38} + 9 R{4,21} + 9 R{4,25} + 9 R{5,8}
   + 9 R{5,10} + 9 R{6,13} + 9 R{6,15} + 9 R{6,17} + 9 R{6,18} + 9 R{6,21}
   + 9 R{6,27} <= 9
 R2_62: <= 0
 R2_63: <= 0
 R2_64: <= 0
 R2_65: 5 R{0,7} + 5 R{0,8} + 5 R{0,10} + 5 R{0,14} + 5 R{0,15} + 5 R{0,16}
   + 5 R{0,17} + 5 R{0,18} + 5 R{0,25} + 5 R{1,12} + 5 R{1,22} + 5 R{1,24}
   + 5 R{1,34} + 5 R{2,0} + 5 R{2,1} + 5 R{2,39} + 5 R{3,27} + 5 R{3,34}
   + 5 R{3,36} + 5 R{3,38} + 5 R{4,20} + 5 R{4,29} + 5 R{4,33} + 5 R{6,1}
   + 5 R{6,2} + 5 R{6,3} + 5 R{6,4} + 5 R{6,6} + 5 R{6,7} + 5 R{6,8}
   + 5 R{6,10} + 5 R{6,11} + 5 R{6,12} + 5 R{6,14} + 5 R{6,16} + 5 R{6,25}
   + 5 R{6,28} + 5 R{6,32} + 5 R{6,35} + 5 R{6,37} + 5 R{6,41} <= 5
 R2_66: 7 R{0,26} + 7 R{1,13} + 7 R{1,15} + 7 R{1,18} + 7 R{1,20}
   + 7 R{1,25} + 7 R{1,28} + 7 R{1,33} + 7 R{2,26} + 7 R{3,20} + 7 R{3,21}
   + 7 R{3,26} + 7 R{3,27} + 7 R{3,34} + 7 R{5,28} + 7 R{6,1} + 7 R{6,2}
   + 7 R{6,3} + 7 R{6,11} <= 7
 R2_67: 3 R{0,1} + 3 R{0,2} + 3 R{0,6} + 3 R{0,7} + 3 R{0,8} + 3 R{0,14}
   + 3 R{0,16} + 3 R{0,17} + 3 R{0,18} + 3 R{0,25} + 3 R{0,26} + 3 R{0,28}
   + 3 R{0,29} + 3 R{2,0} + 3 R{2,1} + 3 R{2,6} + 3 R{2,17} + 3 R{2,37}
   + 3 R{3,28} + 3 R{3,31} + 3 R{3,38} + 3 R{4,5} + 3 R{6,11} <= 3
 R2_68: 6 R{0,26} + 6 R{0,28} + 6 R{0,29} + 6 R{0,30} + 6 R{1,11}
   + 6 R{1,28} + 6 R{5,5} + 6 R{5,13} + 6 R{5,16} + 6 R{5,18} + 6 R{5,20}
   + 6 R{5,22} + 6 R{5,27} + 6 R{5,28} + 6 R{6,1} + 6 R{6,2} + 6 R{6,3}
   + 6 R{6,4} + 6 R{6,5} + 6 R{6,6} + 6 R{6,7} + 6 R{6,8} + 6 R{6,9}
   + 6 R{6,10} + 6 R{6,11} + 6 R{6,13} + 6 R{6,15} + 6 R{6,19} + 6 R{6,20}
   + 6 R{6,32} + 6 R{6,33} + 6 R{6,35} + 6 R{6,36} + 6 R{6,37} + 6 R{6,39}
   + 6 R{6,42} <= 6
 R2_69: 7 R{0,18} + 7 R{0,19} + 7 R{0,20} + 7 R{0,22} + 7 R{0,30}
   + 7 R{1,4} + 7 R{1,5} + 7 R{2,21} + 7 R{2,31} + 7 R{3,16} + 7 R{3,26}
   + 7 R{3,29} + 7 R{3,33} + 7 R{4,1} + 7 R{4,2} + 7 R{4,3} + 7 R{4,4}
   + 7 R{4,6} + 7 R{4,7} + 7 R{4,10} + 7 R{4,11} + 7 R{4,12} + 7 R{4,14}
   + 7 R{4,15} + 7 R{4,18} + 7 R{4,23} + 7 R{4,25} + 7 R{4,26} + 7 R{4,31}
   + 7 R{4,32} + 7 R{4,33} + 7 R{4,35} + 7 R{6,12} + 7 R{6,27} <= 7
 R2_70: 11 R{1,1} + 11 R{1,2} <= 11
 R2_71: 7 R{1,10} + 7 R{1,16} + 7 R{1,34} + 7 R{2,19} + 7 R{3,1} + 7 R{3,2}
   + 7 R{3,3} + 7 R{3,5} + 7 R{3,6} + 7 R{3,7} + 7 R{3,8} + 7 R{3,15}
   + 7 R{3,22} + 7 R{3,27} + 7 R{3,28} + 7 R{3,31} + 7 R{3,34} + 7 R{3,36}
   + 7 R{3,38} + 7 R{5,13} + 7 R{5,21} <= 7
 R2_72: <= 0
 R2_73: 11 R{2,19} <= 11
 R2_74: 5 R{5,1} + 5 R{5,4} + 5 R{5,26} <= 5
 R2_75: 8 R{1,24} + 8 R{1,27} + 8 R{1,34} + 8 R{6,1} + 8 R{6,2} + 8 R{6,3}
   + 8 R{6,4} + 8 R{6,5} + 8 R{6,6} + 8 R{6,8} + 8 R{6,9} + 8 R{6,10}
   + 8 R{6,11} + 8 R{6,12} + 8 R{6,19} + 8 R{6,20} + 8 R{6,27} + 8 R{6,30}
   + 8 R{6,32} + 8 R{6,34} + 8 R{6,35} + 8 R{6,40} + 8 R{6,41} + 8 R{6,42}
   <= 8
 R2_76: 12 R{0,4} + 12 R{0,5} + 12 R{0,19} + 12 R{0,20} + 12 R{0,22}
   + 12 R{0,30} + 12 R{1,25} + 12 R{2,19} + 12 R{2,36} + 12 R{3,3}
   + 12 R{3,7} + 12 R{3,8} + 12 R{3,12} + 12 R{3,13} + 12 R{3,14}
   + 12 R{3,16} + 12 R{3,17} + 12 R{3,18} + 12 R{3,19} + 12 R{3,28}
   + 12 R{3,30} + 12 R{3,32} + 12 R{3,33} + 12 R{3,38} + 12 R{5,5}
   + 12 R{5,17} + 12 R{5,23} + 12 R{6,26} <= 12
 R2_77: 7 R{0,5} + 7 R{0,11} + 7 R{0,12} + 7 R{0,13} + 7 R{0,20}
   + 7 R{0,22} + 7 R{0,24} + 7 R{0,28} + 7 R{0,29} + 7 R{1,2} + 7 R{1,5}
   + 7 R{1,6} + 7 R{1,7} + 7 R{1,8} + 7 R{1,9} + 7 R{1,10} + 7 R{1,12}
   + 7 R{1,14} + 7 R{1,16} + 7 R{1,17} + 7 R{1,19} + 7 R{1,23} + 7 R{1,27}
   + 7 R{1,34} + 7 R{2,4} + 7 R{2,5} + 7 R{2,7} + 7 R{2,9} + 7 R{2,10}
   + 7 R{2,11} + 7 R{2,12} + 7 R{2,13} + 7 R{2,15} + 7 R{2,18} + 7 R{2,20}
   + 7 R{2,22} + 7 R{2,24} + 7 R{2,25} + 7 R{2,27} + 7 R{2,30} + 7 R{2,36}
   + 7 R{2,38} + 7 R{3,4} + 7 R{3,9} + 7 R{3,10} + 7 R{3,12} + 7 R{3,14}
   + 7 R{3,19} + 7 R{3,21} + 7 R{3,23} + 7 R{3,25} + 7 R{3,32} + 7 R{3,35}
   + 7 R{4,2} + 7 R{4,3} + 7 R{4,11} + 7 R{4,15} + 7 R{4,17} + 7 R{4,23}
   + 7 R{4,32} + 7 R{5,2} + 7 R{5,3} + 7 R{5,5} + 7 R{5,6} + 7 R{5,9}
   + 7 R{5,11} + 7 R{5,12} + 7 R{5,13} + 7 R{5,15} + 7 R{5,17} + 7 R{5,19}
   + 7 R{5,21} + 7 R{5,25} + 7 R{6,2} + 7 R{6,3} + 7 R{6,4} + 7 R{6,5}
   + 7 R{6,7} + 7 R{6,9} + 7 R{6,14} + 7 R{6,20} + 7 R{6,26} + 7 R{6,30}
   + 7 R{6,34} <= 7
Bounds
End
